! MP2 cc-pVDZ Opt PAL4

%geom Scan
D 10 1 3 8 = -70.0, 70.0, 11
end
end

*xyz 0 1
    C           -0.308285034947    -0.798862900566    -1.977928585027
    C            0.403549527824    -0.072241326112    -1.020870660564
    C           -1.541244478475    -1.365641379326    -1.666239445613
    C           -0.123892154277     0.077598668220     0.274071795395
    C           -2.083997142189    -1.189527553924    -0.393282696876
    C           -1.377899182530    -0.470010700743     0.564439074411
    H           -3.050840972532    -1.619082576008    -0.146436680508
    H           -1.772208431965    -0.325964563955     1.565699307161
    C            0.587496223662     0.755081617938     1.417723503823
    H            0.103955091198    -0.906733744314    -2.979693411756
    N            1.687812734523     0.493665781098    -1.325743620393
    O           -0.002831626160     1.093838225423     2.427934232520
    O            1.916224210737     0.935249382717     1.290534156374
    H            2.196994182521     0.612954519599     0.393386492977
    H           -2.080750063602    -1.931471962111    -2.421274836977
    H            1.626509250336     1.502101582410    -1.468606248903
    H            2.075538988392     0.083741569566    -2.173550113493
*
